n = 18;
lu = [|-233, 297
      |-309, 324
      |-246, -205
      |-100, 98
      |-174, 253
      |-117, 298
      |66, 280
      |120, 275
      |-293, 135
      |58, 248
      |-201, -123
      |54, 227
      |178, 284
      |43, 299
      |73, 129
      |-157, 296
      |-122, 182
      |98, 295|];
